0000000000000000
0111110000111100
0011111000111100
0011111100111100
0001111100111100
0000111110111100
0001111111111000
0011111111111000
0011111111110000
0011110111110000
0011110111110000
0111110011111000
0111110011111100
0111110001111100
0111100000111110
0000000000000000
